c DCNF-Autarky [version 0.0.1]. 
c Copyright (c) 2018-2019 Swansea University. 
c 
c Input QBF/DQBF path: Rintanen18//sortnetsort8.v.stepl.004.qdimacs
c Output SAT Translation Path: /tmp/sortnetsort8.v.stepl.004.qdimacs-dcnfAutarky.dimacs
c Input Clause Count (tautology free): 2384
c
c Performing E1-Autarky iteration.
c Remaining clauses count after E-Reduction: 2272
c
c Performing A1-Autarky iteration.
c Running Lingeling ... 
c
c Remaining clauses count after A-Reduction: 2255
c
c Performing E1-Autarky iteration.
c Remaining clauses count after E-Reduction: 2255
c
c Performing A1-Autarky iteration.
c Running Lingeling ... 
c
c Remaining clauses count after A-Reduction: 2255
c
c Input Parameter (command line, file): 
c input filename   Rintanen18//sortnetsort8.v.stepl.004.qdimacs
c output filename  /tmp/sortnetsort8.v.stepl.004.qdimacs-dcnfAutarky.dimacs
c autarky level    1
c conformity level 0
c encoding type    2
c no.of var        721
c no.of clauses    2384
c no.of taut cls   0
c 
c Output Parameters: 
c remaining no.of clauses  2255
c
c filename pn pc autarky ntaut rpa rpe rpcdiff result
c "Rintanen18//sortnetsort8.v.stepl.004.qdimacs" 721 2384 "E1+A1" 0 8 648 129 "RED" 
c Total time taken 1 secs.
c
p cnf 721 2255
e 46 47 48 49 50 51 52 53 54 55 56 57 58 59 60 61 62 63 64 65 66 67 68 69 70 71 72 73 74 75 76 77 78 79 80 81 82 83 84 85 86 87 88 89 90 91 92 93 94 95 96 97 98 99 100 101 102 103 104 105 106 107 108 109 110 111 112 113 114 115 116 117 118 119 120 121 122 123 124 125 126 127 128 129 130 131 132 133 134 135 136 137 138 139 140 141 142 143 144 145 146 147 148 149 150 151 152 153 154 155 156 157 0
a 158 1 2 3 4 5 6 7 8 0
e 9 10 11 12 13 14 15 16 17 18 19 20 21 22 23 24 25 26 27 28 29 30 31 32 33 34 35 36 37 38 39 40 41 42 43 44 45 159 160 161 162 163 164 165 166 167 168 169 170 171 172 173 174 175 176 177 178 179 180 181 182 183 184 185 186 187 188 189 190 191 192 193 194 195 196 197 198 199 200 201 202 203 204 205 206 207 208 209 210 211 212 213 214 215 216 217 218 219 220 221 222 223 224 225 226 227 228 229 230 231 232 233 234 235 236 237 238 239 240 241 242 243 244 245 246 247 248 249 250 251 252 253 254 255 256 257 258 259 260 261 262 263 264 265 266 267 268 269 270 271 272 273 274 275 276 277 278 279 280 281 282 283 284 285 286 287 288 289 290 291 292 293 294 295 296 297 298 299 300 301 302 303 304 305 306 307 308 309 310 311 312 313 314 315 316 317 318 319 320 321 322 323 324 325 326 327 328 329 330 331 332 333 334 335 336 337 338 339 340 341 342 343 344 345 346 347 348 349 350 351 352 353 354 355 356 357 358 359 360 361 362 363 364 365 366 367 368 369 370 371 372 373 374 375 376 377 378 379 380 381 382 383 384 385 386 387 388 389 390 391 392 393 394 395 396 397 398 399 400 401 402 403 404 405 406 407 408 409 410 411 412 413 414 415 416 417 418 419 420 421 422 423 424 425 426 427 428 429 430 431 432 433 434 435 436 437 438 439 440 441 442 443 444 445 446 447 448 449 450 451 452 453 454 455 456 457 458 459 460 461 462 463 464 465 466 467 468 469 470 471 472 473 474 475 476 477 478 479 480 481 482 483 484 485 486 487 488 489 490 491 492 493 494 495 496 497 498 499 500 501 502 503 504 505 506 507 508 509 510 511 512 513 514 515 516 517 518 519 520 521 522 523 524 525 526 527 528 529 530 531 532 533 534 535 536 537 538 539 540 541 542 543 544 545 546 547 548 549 550 551 552 553 554 555 556 557 558 559 560 561 562 563 564 565 566 567 568 569 570 571 572 573 574 575 576 577 578 579 580 581 582 583 584 585 586 587 588 589 590 591 592 593 594 595 596 597 598 599 600 601 602 603 604 605 606 607 608 609 610 611 612 613 614 615 616 617 618 619 620 621 622 623 624 625 626 627 628 629 630 631 632 633 634 635 636 637 638 639 640 641 642 643 644 645 646 647 648 649 650 651 652 653 654 655 656 657 658 659 660 661 662 663 664 665 666 667 668 669 670 671 672 673 674 675 676 677 678 679 680 681 682 683 684 685 686 687 688 689 690 691 692 693 694 695 696 697 698 699 700 701 702 703 704 705 706 707 708 709 710 711 712 713 714 715 716 717 718 719 720 721 0
-37 38 0
-38 39 0
-39 40 0
-40 41 0
-41 42 0
-42 43 0
-43 44 0
1 -10 0
-1 10 252 251 250 249 248 247 246 0
-252 46 0
-252 -2 0
-252 1 0
-46 -1 2 252 0
-251 47 0
-251 -3 0
-251 1 0
-47 -1 3 251 0
-250 48 0
-250 -4 0
-250 1 0
-48 -1 4 250 0
-249 49 0
-249 -5 0
-249 1 0
-49 -1 5 249 0
-248 50 0
-248 -6 0
-248 1 0
-50 -1 6 248 0
-247 51 0
-247 -7 0
-247 1 0
-51 -1 7 247 0
-246 52 0
-246 -8 0
-246 1 0
-52 -1 8 246 0
2 -11 253 0
-2 11 259 258 257 256 255 254 0
-253 46 0
-253 -2 0
-253 1 0
-46 -1 2 253 0
-259 53 0
-259 -3 0
-259 2 0
-53 -2 3 259 0
-258 54 0
-258 -4 0
-258 2 0
-54 -2 4 258 0
-257 55 0
-257 -5 0
-257 2 0
-55 -2 5 257 0
-256 56 0
-256 -6 0
-256 2 0
-56 -2 6 256 0
-255 57 0
-255 -7 0
-255 2 0
-57 -2 7 255 0
-254 58 0
-254 -8 0
-254 2 0
-58 -2 8 254 0
3 -12 261 260 0
-3 12 266 265 264 263 262 0
-261 47 0
-261 -3 0
-261 1 0
-47 -1 3 261 0
-260 53 0
-260 -3 0
-260 2 0
-53 -2 3 260 0
-266 59 0
-266 -4 0
-266 3 0
-59 -3 4 266 0
-265 60 0
-265 -5 0
-265 3 0
-60 -3 5 265 0
-264 61 0
-264 -6 0
-264 3 0
-61 -3 6 264 0
-263 62 0
-263 -7 0
-263 3 0
-62 -3 7 263 0
-262 63 0
-262 -8 0
-262 3 0
-63 -3 8 262 0
4 -13 269 268 267 0
-4 13 273 272 271 270 0
-269 48 0
-269 -4 0
-269 1 0
-48 -1 4 269 0
-268 54 0
-268 -4 0
-268 2 0
-54 -2 4 268 0
-267 59 0
-267 -4 0
-267 3 0
-59 -3 4 267 0
-273 64 0
-273 -5 0
-273 4 0
-64 -4 5 273 0
-272 65 0
-272 -6 0
-272 4 0
-65 -4 6 272 0
-271 66 0
-271 -7 0
-271 4 0
-66 -4 7 271 0
-270 67 0
-270 -8 0
-270 4 0
-67 -4 8 270 0
5 -14 277 276 275 274 0
-5 14 280 279 278 0
-277 49 0
-277 -5 0
-277 1 0
-49 -1 5 277 0
-276 55 0
-276 -5 0
-276 2 0
-55 -2 5 276 0
-275 60 0
-275 -5 0
-275 3 0
-60 -3 5 275 0
-274 64 0
-274 -5 0
-274 4 0
-64 -4 5 274 0
-280 68 0
-280 -6 0
-280 5 0
-68 -5 6 280 0
-279 69 0
-279 -7 0
-279 5 0
-69 -5 7 279 0
-278 70 0
-278 -8 0
-278 5 0
-70 -5 8 278 0
6 -15 285 284 283 282 281 0
-6 15 287 286 0
-285 50 0
-285 -6 0
-285 1 0
-50 -1 6 285 0
-284 56 0
-284 -6 0
-284 2 0
-56 -2 6 284 0
-283 61 0
-283 -6 0
-283 3 0
-61 -3 6 283 0
-282 65 0
-282 -6 0
-282 4 0
-65 -4 6 282 0
-281 68 0
-281 -6 0
-281 5 0
-68 -5 6 281 0
-287 71 0
-287 -7 0
-287 6 0
-71 -6 7 287 0
-286 72 0
-286 -8 0
-286 6 0
-72 -6 8 286 0
7 -16 293 292 291 290 289 288 0
-7 16 294 0
-293 51 0
-293 -7 0
-293 1 0
-51 -1 7 293 0
-292 57 0
-292 -7 0
-292 2 0
-57 -2 7 292 0
-291 62 0
-291 -7 0
-291 3 0
-62 -3 7 291 0
-290 66 0
-290 -7 0
-290 4 0
-66 -4 7 290 0
-289 69 0
-289 -7 0
-289 5 0
-69 -5 7 289 0
-288 71 0
-288 -7 0
-288 6 0
-71 -6 7 288 0
-294 73 0
-294 -8 0
-294 7 0
-73 -7 8 294 0
8 -17 301 300 299 298 297 296 295 0
-8 17 0
-301 52 0
-301 -8 0
-301 1 0
-52 -1 8 301 0
-300 58 0
-300 -8 0
-300 2 0
-58 -2 8 300 0
-299 63 0
-299 -8 0
-299 3 0
-63 -3 8 299 0
-298 67 0
-298 -8 0
-298 4 0
-67 -4 8 298 0
-297 70 0
-297 -8 0
-297 5 0
-70 -5 8 297 0
-296 72 0
-296 -8 0
-296 6 0
-72 -6 8 296 0
-295 73 0
-295 -8 0
-295 7 0
-73 -7 8 295 0
-46 -1 2 -10 0
-46 -1 2 11 0
-47 -1 3 -10 0
-47 -1 3 12 0
-48 -1 4 -10 0
-48 -1 4 13 0
-49 -1 5 -10 0
-49 -1 5 14 0
-50 -1 6 -10 0
-50 -1 6 15 0
-51 -1 7 -10 0
-51 -1 7 16 0
-52 -1 8 -10 0
-52 -1 8 17 0
-53 -2 3 -11 0
-53 -2 3 12 0
-54 -2 4 -11 0
-54 -2 4 13 0
-55 -2 5 -11 0
-55 -2 5 14 0
-56 -2 6 -11 0
-56 -2 6 15 0
-57 -2 7 -11 0
-57 -2 7 16 0
-58 -2 8 -11 0
-58 -2 8 17 0
-59 -3 4 -12 0
-59 -3 4 13 0
-60 -3 5 -12 0
-60 -3 5 14 0
-61 -3 6 -12 0
-61 -3 6 15 0
-62 -3 7 -12 0
-62 -3 7 16 0
-63 -3 8 -12 0
-63 -3 8 17 0
-64 -4 5 -13 0
-64 -4 5 14 0
-65 -4 6 -13 0
-65 -4 6 15 0
-66 -4 7 -13 0
-66 -4 7 16 0
-67 -4 8 -13 0
-67 -4 8 17 0
-68 -5 6 -14 0
-68 -5 6 15 0
-69 -5 7 -14 0
-69 -5 7 16 0
-70 -5 8 -14 0
-70 -5 8 17 0
-71 -6 7 -15 0
-71 -6 7 16 0
-72 -6 8 -15 0
-72 -6 8 17 0
-73 -7 8 -16 0
-73 -7 8 17 0
-202 -52 0
-201 202 0
-51 202 0
-201 -51 0
-200 201 0
-50 201 0
-200 -50 0
-199 200 0
-49 200 0
-199 -49 0
-198 199 0
-48 199 0
-198 -48 0
-46 198 0
-47 198 0
-46 -47 0
-196 -58 0
-195 196 0
-57 196 0
-195 -57 0
-194 195 0
-56 195 0
-194 -56 0
-193 194 0
-55 194 0
-193 -55 0
-53 193 0
-54 193 0
-53 -54 0
-46 -58 0
-46 -57 0
-46 -56 0
-46 -55 0
-46 -54 0
-46 -53 0
-191 -63 0
-190 191 0
-62 191 0
-190 -62 0
-189 190 0
-61 190 0
-189 -61 0
-59 189 0
-60 189 0
-59 -60 0
-188 -63 0
-188 -62 0
-188 -61 0
-188 -60 0
-188 -59 0
-47 188 0
-53 188 0
-47 -53 0
-186 -67 0
-185 186 0
-66 186 0
-185 -66 0
-64 185 0
-65 185 0
-64 -65 0
-184 -67 0
-184 -66 0
-184 -65 0
-184 -64 0
-183 184 0
-59 184 0
-183 -59 0
-48 183 0
-54 183 0
-48 -54 0
-181 -70 0
-68 181 0
-69 181 0
-68 -69 0
-180 -70 0
-180 -69 0
-180 -68 0
-179 180 0
-64 180 0
-179 -64 0
-178 179 0
-60 179 0
-178 -60 0
-49 178 0
-55 178 0
-49 -55 0
-71 -72 0
-176 -72 0
-176 -71 0
-175 176 0
-68 176 0
-175 -68 0
-174 175 0
-65 175 0
-174 -65 0
-173 174 0
-61 174 0
-173 -61 0
-50 173 0
-56 173 0
-50 -56 0
-172 -73 0
-171 172 0
-71 172 0
-171 -71 0
-170 171 0
-69 171 0
-170 -69 0
-169 170 0
-66 170 0
-169 -66 0
-168 169 0
-62 169 0
-168 -62 0
-51 168 0
-57 168 0
-51 -57 0
-166 -73 0
-165 166 0
-72 166 0
-165 -72 0
-164 165 0
-70 165 0
-164 -70 0
-163 164 0
-67 164 0
-163 -67 0
-162 163 0
-63 163 0
-162 -63 0
-52 162 0
-58 162 0
-52 -58 0
-244 -46 0
-243 244 0
-47 244 0
-243 -47 0
-242 243 0
-48 243 0
-242 -48 0
-241 242 0
-49 242 0
-241 -49 0
-240 241 0
-50 241 0
-240 -50 0
-52 240 0
-51 240 0
-52 -51 0
-239 -46 0
-238 239 0
-53 239 0
-238 -53 0
-237 238 0
-54 238 0
-237 -54 0
-236 237 0
-55 237 0
-236 -55 0
-235 236 0
-56 236 0
-235 -56 0
-58 235 0
-57 235 0
-58 -57 0
-234 -47 0
-234 -53 0
-233 234 0
-59 234 0
-233 -59 0
-232 233 0
-60 233 0
-232 -60 0
-231 232 0
-61 232 0
-231 -61 0
-63 231 0
-62 231 0
-63 -62 0
-53 -47 0
-229 -48 0
-229 -54 0
-229 -59 0
-228 229 0
-64 229 0
-228 -64 0
-227 228 0
-65 228 0
-227 -65 0
-67 227 0
-66 227 0
-67 -66 0
-225 -48 0
-59 225 0
-54 225 0
-59 -54 0
-224 -49 0
-224 -55 0
-224 -60 0
-224 -64 0
-223 224 0
-68 224 0
-223 -68 0
-70 223 0
-69 223 0
-70 -69 0
-221 -49 0
-220 221 0
-55 221 0
-220 -55 0
-64 220 0
-60 220 0
-64 -60 0
-219 -50 0
-219 -56 0
-219 -61 0
-219 -65 0
-219 -68 0
-72 219 0
-71 219 0
-72 -71 0
-217 -50 0
-216 217 0
-56 217 0
-216 -56 0
-215 216 0
-61 216 0
-215 -61 0
-68 215 0
-65 215 0
-68 -65 0
-73 -51 0
-73 -57 0
-73 -62 0
-73 -66 0
-73 -69 0
-73 -71 0
-213 -51 0
-212 213 0
-57 213 0
-212 -57 0
-211 212 0
-62 212 0
-211 -62 0
-210 211 0
-66 211 0
-210 -66 0
-71 210 0
-69 210 0
-71 -69 0
-208 -52 0
-207 208 0
-58 208 0
-207 -58 0
-206 207 0
-63 207 0
-206 -63 0
-205 206 0
-67 206 0
-205 -67 0
-204 205 0
-70 205 0
-204 -70 0
-73 204 0
-72 204 0
-73 -72 0
10 -19 0
-10 19 392 391 390 389 388 387 386 0
-392 74 0
-392 -11 0
-392 10 0
-74 -10 11 392 0
-391 75 0
-391 -12 0
-391 10 0
-75 -10 12 391 0
-390 76 0
-390 -13 0
-390 10 0
-76 -10 13 390 0
-389 77 0
-389 -14 0
-389 10 0
-77 -10 14 389 0
-388 78 0
-388 -15 0
-388 10 0
-78 -10 15 388 0
-387 79 0
-387 -16 0
-387 10 0
-79 -10 16 387 0
-386 80 0
-386 -17 0
-386 10 0
-80 -10 17 386 0
11 -20 393 0
-11 20 399 398 397 396 395 394 0
-393 74 0
-393 -11 0
-393 10 0
-74 -10 11 393 0
-399 81 0
-399 -12 0
-399 11 0
-81 -11 12 399 0
-398 82 0
-398 -13 0
-398 11 0
-82 -11 13 398 0
-397 83 0
-397 -14 0
-397 11 0
-83 -11 14 397 0
-396 84 0
-396 -15 0
-396 11 0
-84 -11 15 396 0
-395 85 0
-395 -16 0
-395 11 0
-85 -11 16 395 0
-394 86 0
-394 -17 0
-394 11 0
-86 -11 17 394 0
12 -21 401 400 0
-12 21 406 405 404 403 402 0
-401 75 0
-401 -12 0
-401 10 0
-75 -10 12 401 0
-400 81 0
-400 -12 0
-400 11 0
-81 -11 12 400 0
-406 87 0
-406 -13 0
-406 12 0
-87 -12 13 406 0
-405 88 0
-405 -14 0
-405 12 0
-88 -12 14 405 0
-404 89 0
-404 -15 0
-404 12 0
-89 -12 15 404 0
-403 90 0
-403 -16 0
-403 12 0
-90 -12 16 403 0
-402 91 0
-402 -17 0
-402 12 0
-91 -12 17 402 0
13 -22 409 408 407 0
-13 22 413 412 411 410 0
-409 76 0
-409 -13 0
-409 10 0
-76 -10 13 409 0
-408 82 0
-408 -13 0
-408 11 0
-82 -11 13 408 0
-407 87 0
-407 -13 0
-407 12 0
-87 -12 13 407 0
-413 92 0
-413 -14 0
-413 13 0
-92 -13 14 413 0
-412 93 0
-412 -15 0
-412 13 0
-93 -13 15 412 0
-411 94 0
-411 -16 0
-411 13 0
-94 -13 16 411 0
-410 95 0
-410 -17 0
-410 13 0
-95 -13 17 410 0
14 -23 417 416 415 414 0
-14 23 420 419 418 0
-417 77 0
-417 -14 0
-417 10 0
-77 -10 14 417 0
-416 83 0
-416 -14 0
-416 11 0
-83 -11 14 416 0
-415 88 0
-415 -14 0
-415 12 0
-88 -12 14 415 0
-414 92 0
-414 -14 0
-414 13 0
-92 -13 14 414 0
-420 96 0
-420 -15 0
-420 14 0
-96 -14 15 420 0
-419 97 0
-419 -16 0
-419 14 0
-97 -14 16 419 0
-418 98 0
-418 -17 0
-418 14 0
-98 -14 17 418 0
15 -24 425 424 423 422 421 0
-15 24 427 426 0
-425 78 0
-425 -15 0
-425 10 0
-78 -10 15 425 0
-424 84 0
-424 -15 0
-424 11 0
-84 -11 15 424 0
-423 89 0
-423 -15 0
-423 12 0
-89 -12 15 423 0
-422 93 0
-422 -15 0
-422 13 0
-93 -13 15 422 0
-421 96 0
-421 -15 0
-421 14 0
-96 -14 15 421 0
-427 99 0
-427 -16 0
-427 15 0
-99 -15 16 427 0
-426 100 0
-426 -17 0
-426 15 0
-100 -15 17 426 0
16 -25 433 432 431 430 429 428 0
-16 25 434 0
-433 79 0
-433 -16 0
-433 10 0
-79 -10 16 433 0
-432 85 0
-432 -16 0
-432 11 0
-85 -11 16 432 0
-431 90 0
-431 -16 0
-431 12 0
-90 -12 16 431 0
-430 94 0
-430 -16 0
-430 13 0
-94 -13 16 430 0
-429 97 0
-429 -16 0
-429 14 0
-97 -14 16 429 0
-428 99 0
-428 -16 0
-428 15 0
-99 -15 16 428 0
-434 101 0
-434 -17 0
-434 16 0
-101 -16 17 434 0
17 -26 441 440 439 438 437 436 435 0
-17 26 0
-441 80 0
-441 -17 0
-441 10 0
-80 -10 17 441 0
-440 86 0
-440 -17 0
-440 11 0
-86 -11 17 440 0
-439 91 0
-439 -17 0
-439 12 0
-91 -12 17 439 0
-438 95 0
-438 -17 0
-438 13 0
-95 -13 17 438 0
-437 98 0
-437 -17 0
-437 14 0
-98 -14 17 437 0
-436 100 0
-436 -17 0
-436 15 0
-100 -15 17 436 0
-435 101 0
-435 -17 0
-435 16 0
-101 -16 17 435 0
-74 -10 11 -19 0
-74 -10 11 20 0
-75 -10 12 -19 0
-75 -10 12 21 0
-76 -10 13 -19 0
-76 -10 13 22 0
-77 -10 14 -19 0
-77 -10 14 23 0
-78 -10 15 -19 0
-78 -10 15 24 0
-79 -10 16 -19 0
-79 -10 16 25 0
-80 -10 17 -19 0
-80 -10 17 26 0
-81 -11 12 -20 0
-81 -11 12 21 0
-82 -11 13 -20 0
-82 -11 13 22 0
-83 -11 14 -20 0
-83 -11 14 23 0
-84 -11 15 -20 0
-84 -11 15 24 0
-85 -11 16 -20 0
-85 -11 16 25 0
-86 -11 17 -20 0
-86 -11 17 26 0
-87 -12 13 -21 0
-87 -12 13 22 0
-88 -12 14 -21 0
-88 -12 14 23 0
-89 -12 15 -21 0
-89 -12 15 24 0
-90 -12 16 -21 0
-90 -12 16 25 0
-91 -12 17 -21 0
-91 -12 17 26 0
-92 -13 14 -22 0
-92 -13 14 23 0
-93 -13 15 -22 0
-93 -13 15 24 0
-94 -13 16 -22 0
-94 -13 16 25 0
-95 -13 17 -22 0
-95 -13 17 26 0
-96 -14 15 -23 0
-96 -14 15 24 0
-97 -14 16 -23 0
-97 -14 16 25 0
-98 -14 17 -23 0
-98 -14 17 26 0
-99 -15 16 -24 0
-99 -15 16 25 0
-100 -15 17 -24 0
-100 -15 17 26 0
-101 -16 17 -25 0
-101 -16 17 26 0
-342 -80 0
-341 342 0
-79 342 0
-341 -79 0
-340 341 0
-78 341 0
-340 -78 0
-339 340 0
-77 340 0
-339 -77 0
-338 339 0
-76 339 0
-338 -76 0
-74 338 0
-75 338 0
-74 -75 0
-336 -86 0
-335 336 0
-85 336 0
-335 -85 0
-334 335 0
-84 335 0
-334 -84 0
-333 334 0
-83 334 0
-333 -83 0
-81 333 0
-82 333 0
-81 -82 0
-74 -86 0
-74 -85 0
-74 -84 0
-74 -83 0
-74 -82 0
-74 -81 0
-331 -91 0
-330 331 0
-90 331 0
-330 -90 0
-329 330 0
-89 330 0
-329 -89 0
-87 329 0
-88 329 0
-87 -88 0
-328 -91 0
-328 -90 0
-328 -89 0
-328 -88 0
-328 -87 0
-75 328 0
-81 328 0
-75 -81 0
-326 -95 0
-325 326 0
-94 326 0
-325 -94 0
-92 325 0
-93 325 0
-92 -93 0
-324 -95 0
-324 -94 0
-324 -93 0
-324 -92 0
-323 324 0
-87 324 0
-323 -87 0
-76 323 0
-82 323 0
-76 -82 0
-321 -98 0
-96 321 0
-97 321 0
-96 -97 0
-320 -98 0
-320 -97 0
-320 -96 0
-319 320 0
-92 320 0
-319 -92 0
-318 319 0
-88 319 0
-318 -88 0
-77 318 0
-83 318 0
-77 -83 0
-99 -100 0
-316 -100 0
-316 -99 0
-315 316 0
-96 316 0
-315 -96 0
-314 315 0
-93 315 0
-314 -93 0
-313 314 0
-89 314 0
-313 -89 0
-78 313 0
-84 313 0
-78 -84 0
-312 -101 0
-311 312 0
-99 312 0
-311 -99 0
-310 311 0
-97 311 0
-310 -97 0
-309 310 0
-94 310 0
-309 -94 0
-308 309 0
-90 309 0
-308 -90 0
-79 308 0
-85 308 0
-79 -85 0
-306 -101 0
-305 306 0
-100 306 0
-305 -100 0
-304 305 0
-98 305 0
-304 -98 0
-303 304 0
-95 304 0
-303 -95 0
-302 303 0
-91 303 0
-302 -91 0
-80 302 0
-86 302 0
-80 -86 0
-384 -74 0
-383 384 0
-75 384 0
-383 -75 0
-382 383 0
-76 383 0
-382 -76 0
-381 382 0
-77 382 0
-381 -77 0
-380 381 0
-78 381 0
-380 -78 0
-80 380 0
-79 380 0
-80 -79 0
-379 -74 0
-378 379 0
-81 379 0
-378 -81 0
-377 378 0
-82 378 0
-377 -82 0
-376 377 0
-83 377 0
-376 -83 0
-375 376 0
-84 376 0
-375 -84 0
-86 375 0
-85 375 0
-86 -85 0
-374 -75 0
-374 -81 0
-373 374 0
-87 374 0
-373 -87 0
-372 373 0
-88 373 0
-372 -88 0
-371 372 0
-89 372 0
-371 -89 0
-91 371 0
-90 371 0
-91 -90 0
-81 -75 0
-369 -76 0
-369 -82 0
-369 -87 0
-368 369 0
-92 369 0
-368 -92 0
-367 368 0
-93 368 0
-367 -93 0
-95 367 0
-94 367 0
-95 -94 0
-365 -76 0
-87 365 0
-82 365 0
-87 -82 0
-364 -77 0
-364 -83 0
-364 -88 0
-364 -92 0
-363 364 0
-96 364 0
-363 -96 0
-98 363 0
-97 363 0
-98 -97 0
-361 -77 0
-360 361 0
-83 361 0
-360 -83 0
-92 360 0
-88 360 0
-92 -88 0
-359 -78 0
-359 -84 0
-359 -89 0
-359 -93 0
-359 -96 0
-100 359 0
-99 359 0
-100 -99 0
-357 -78 0
-356 357 0
-84 357 0
-356 -84 0
-355 356 0
-89 356 0
-355 -89 0
-96 355 0
-93 355 0
-96 -93 0
-101 -79 0
-101 -85 0
-101 -90 0
-101 -94 0
-101 -97 0
-101 -99 0
-353 -79 0
-352 353 0
-85 353 0
-352 -85 0
-351 352 0
-90 352 0
-351 -90 0
-350 351 0
-94 351 0
-350 -94 0
-99 350 0
-97 350 0
-99 -97 0
-348 -80 0
-347 348 0
-86 348 0
-347 -86 0
-346 347 0
-91 347 0
-346 -91 0
-345 346 0
-95 346 0
-345 -95 0
-344 345 0
-98 345 0
-344 -98 0
-101 344 0
-100 344 0
-101 -100 0
19 -28 0
-19 28 532 531 530 529 528 527 526 0
-532 102 0
-532 -20 0
-532 19 0
-102 -19 20 532 0
-531 103 0
-531 -21 0
-531 19 0
-103 -19 21 531 0
-530 104 0
-530 -22 0
-530 19 0
-104 -19 22 530 0
-529 105 0
-529 -23 0
-529 19 0
-105 -19 23 529 0
-528 106 0
-528 -24 0
-528 19 0
-106 -19 24 528 0
-527 107 0
-527 -25 0
-527 19 0
-107 -19 25 527 0
-526 108 0
-526 -26 0
-526 19 0
-108 -19 26 526 0
20 -29 533 0
-20 29 539 538 537 536 535 534 0
-533 102 0
-533 -20 0
-533 19 0
-102 -19 20 533 0
-539 109 0
-539 -21 0
-539 20 0
-109 -20 21 539 0
-538 110 0
-538 -22 0
-538 20 0
-110 -20 22 538 0
-537 111 0
-537 -23 0
-537 20 0
-111 -20 23 537 0
-536 112 0
-536 -24 0
-536 20 0
-112 -20 24 536 0
-535 113 0
-535 -25 0
-535 20 0
-113 -20 25 535 0
-534 114 0
-534 -26 0
-534 20 0
-114 -20 26 534 0
21 -30 541 540 0
-21 30 546 545 544 543 542 0
-541 103 0
-541 -21 0
-541 19 0
-103 -19 21 541 0
-540 109 0
-540 -21 0
-540 20 0
-109 -20 21 540 0
-546 115 0
-546 -22 0
-546 21 0
-115 -21 22 546 0
-545 116 0
-545 -23 0
-545 21 0
-116 -21 23 545 0
-544 117 0
-544 -24 0
-544 21 0
-117 -21 24 544 0
-543 118 0
-543 -25 0
-543 21 0
-118 -21 25 543 0
-542 119 0
-542 -26 0
-542 21 0
-119 -21 26 542 0
22 -31 549 548 547 0
-22 31 553 552 551 550 0
-549 104 0
-549 -22 0
-549 19 0
-104 -19 22 549 0
-548 110 0
-548 -22 0
-548 20 0
-110 -20 22 548 0
-547 115 0
-547 -22 0
-547 21 0
-115 -21 22 547 0
-553 120 0
-553 -23 0
-553 22 0
-120 -22 23 553 0
-552 121 0
-552 -24 0
-552 22 0
-121 -22 24 552 0
-551 122 0
-551 -25 0
-551 22 0
-122 -22 25 551 0
-550 123 0
-550 -26 0
-550 22 0
-123 -22 26 550 0
23 -32 557 556 555 554 0
-23 32 560 559 558 0
-557 105 0
-557 -23 0
-557 19 0
-105 -19 23 557 0
-556 111 0
-556 -23 0
-556 20 0
-111 -20 23 556 0
-555 116 0
-555 -23 0
-555 21 0
-116 -21 23 555 0
-554 120 0
-554 -23 0
-554 22 0
-120 -22 23 554 0
-560 124 0
-560 -24 0
-560 23 0
-124 -23 24 560 0
-559 125 0
-559 -25 0
-559 23 0
-125 -23 25 559 0
-558 126 0
-558 -26 0
-558 23 0
-126 -23 26 558 0
24 -33 565 564 563 562 561 0
-24 33 567 566 0
-565 106 0
-565 -24 0
-565 19 0
-106 -19 24 565 0
-564 112 0
-564 -24 0
-564 20 0
-112 -20 24 564 0
-563 117 0
-563 -24 0
-563 21 0
-117 -21 24 563 0
-562 121 0
-562 -24 0
-562 22 0
-121 -22 24 562 0
-561 124 0
-561 -24 0
-561 23 0
-124 -23 24 561 0
-567 127 0
-567 -25 0
-567 24 0
-127 -24 25 567 0
-566 128 0
-566 -26 0
-566 24 0
-128 -24 26 566 0
25 -34 573 572 571 570 569 568 0
-25 34 574 0
-573 107 0
-573 -25 0
-573 19 0
-107 -19 25 573 0
-572 113 0
-572 -25 0
-572 20 0
-113 -20 25 572 0
-571 118 0
-571 -25 0
-571 21 0
-118 -21 25 571 0
-570 122 0
-570 -25 0
-570 22 0
-122 -22 25 570 0
-569 125 0
-569 -25 0
-569 23 0
-125 -23 25 569 0
-568 127 0
-568 -25 0
-568 24 0
-127 -24 25 568 0
-574 129 0
-574 -26 0
-574 25 0
-129 -25 26 574 0
26 -35 581 580 579 578 577 576 575 0
-26 35 0
-581 108 0
-581 -26 0
-581 19 0
-108 -19 26 581 0
-580 114 0
-580 -26 0
-580 20 0
-114 -20 26 580 0
-579 119 0
-579 -26 0
-579 21 0
-119 -21 26 579 0
-578 123 0
-578 -26 0
-578 22 0
-123 -22 26 578 0
-577 126 0
-577 -26 0
-577 23 0
-126 -23 26 577 0
-576 128 0
-576 -26 0
-576 24 0
-128 -24 26 576 0
-575 129 0
-575 -26 0
-575 25 0
-129 -25 26 575 0
-102 -19 20 -28 0
-102 -19 20 29 0
-103 -19 21 -28 0
-103 -19 21 30 0
-104 -19 22 -28 0
-104 -19 22 31 0
-105 -19 23 -28 0
-105 -19 23 32 0
-106 -19 24 -28 0
-106 -19 24 33 0
-107 -19 25 -28 0
-107 -19 25 34 0
-108 -19 26 -28 0
-108 -19 26 35 0
-109 -20 21 -29 0
-109 -20 21 30 0
-110 -20 22 -29 0
-110 -20 22 31 0
-111 -20 23 -29 0
-111 -20 23 32 0
-112 -20 24 -29 0
-112 -20 24 33 0
-113 -20 25 -29 0
-113 -20 25 34 0
-114 -20 26 -29 0
-114 -20 26 35 0
-115 -21 22 -30 0
-115 -21 22 31 0
-116 -21 23 -30 0
-116 -21 23 32 0
-117 -21 24 -30 0
-117 -21 24 33 0
-118 -21 25 -30 0
-118 -21 25 34 0
-119 -21 26 -30 0
-119 -21 26 35 0
-120 -22 23 -31 0
-120 -22 23 32 0
-121 -22 24 -31 0
-121 -22 24 33 0
-122 -22 25 -31 0
-122 -22 25 34 0
-123 -22 26 -31 0
-123 -22 26 35 0
-124 -23 24 -32 0
-124 -23 24 33 0
-125 -23 25 -32 0
-125 -23 25 34 0
-126 -23 26 -32 0
-126 -23 26 35 0
-127 -24 25 -33 0
-127 -24 25 34 0
-128 -24 26 -33 0
-128 -24 26 35 0
-129 -25 26 -34 0
-129 -25 26 35 0
-482 -108 0
-481 482 0
-107 482 0
-481 -107 0
-480 481 0
-106 481 0
-480 -106 0
-479 480 0
-105 480 0
-479 -105 0
-478 479 0
-104 479 0
-478 -104 0
-102 478 0
-103 478 0
-102 -103 0
-476 -114 0
-475 476 0
-113 476 0
-475 -113 0
-474 475 0
-112 475 0
-474 -112 0
-473 474 0
-111 474 0
-473 -111 0
-109 473 0
-110 473 0
-109 -110 0
-102 -114 0
-102 -113 0
-102 -112 0
-102 -111 0
-102 -110 0
-102 -109 0
-471 -119 0
-470 471 0
-118 471 0
-470 -118 0
-469 470 0
-117 470 0
-469 -117 0
-115 469 0
-116 469 0
-115 -116 0
-468 -119 0
-468 -118 0
-468 -117 0
-468 -116 0
-468 -115 0
-103 468 0
-109 468 0
-103 -109 0
-466 -123 0
-465 466 0
-122 466 0
-465 -122 0
-120 465 0
-121 465 0
-120 -121 0
-464 -123 0
-464 -122 0
-464 -121 0
-464 -120 0
-463 464 0
-115 464 0
-463 -115 0
-104 463 0
-110 463 0
-104 -110 0
-461 -126 0
-124 461 0
-125 461 0
-124 -125 0
-460 -126 0
-460 -125 0
-460 -124 0
-459 460 0
-120 460 0
-459 -120 0
-458 459 0
-116 459 0
-458 -116 0
-105 458 0
-111 458 0
-105 -111 0
-127 -128 0
-456 -128 0
-456 -127 0
-455 456 0
-124 456 0
-455 -124 0
-454 455 0
-121 455 0
-454 -121 0
-453 454 0
-117 454 0
-453 -117 0
-106 453 0
-112 453 0
-106 -112 0
-452 -129 0
-451 452 0
-127 452 0
-451 -127 0
-450 451 0
-125 451 0
-450 -125 0
-449 450 0
-122 450 0
-449 -122 0
-448 449 0
-118 449 0
-448 -118 0
-107 448 0
-113 448 0
-107 -113 0
-446 -129 0
-445 446 0
-128 446 0
-445 -128 0
-444 445 0
-126 445 0
-444 -126 0
-443 444 0
-123 444 0
-443 -123 0
-442 443 0
-119 443 0
-442 -119 0
-108 442 0
-114 442 0
-108 -114 0
-524 -102 0
-523 524 0
-103 524 0
-523 -103 0
-522 523 0
-104 523 0
-522 -104 0
-521 522 0
-105 522 0
-521 -105 0
-520 521 0
-106 521 0
-520 -106 0
-108 520 0
-107 520 0
-108 -107 0
-519 -102 0
-518 519 0
-109 519 0
-518 -109 0
-517 518 0
-110 518 0
-517 -110 0
-516 517 0
-111 517 0
-516 -111 0
-515 516 0
-112 516 0
-515 -112 0
-114 515 0
-113 515 0
-114 -113 0
-514 -103 0
-514 -109 0
-513 514 0
-115 514 0
-513 -115 0
-512 513 0
-116 513 0
-512 -116 0
-511 512 0
-117 512 0
-511 -117 0
-119 511 0
-118 511 0
-119 -118 0
-109 -103 0
-509 -104 0
-509 -110 0
-509 -115 0
-508 509 0
-120 509 0
-508 -120 0
-507 508 0
-121 508 0
-507 -121 0
-123 507 0
-122 507 0
-123 -122 0
-505 -104 0
-115 505 0
-110 505 0
-115 -110 0
-504 -105 0
-504 -111 0
-504 -116 0
-504 -120 0
-503 504 0
-124 504 0
-503 -124 0
-126 503 0
-125 503 0
-126 -125 0
-501 -105 0
-500 501 0
-111 501 0
-500 -111 0
-120 500 0
-116 500 0
-120 -116 0
-499 -106 0
-499 -112 0
-499 -117 0
-499 -121 0
-499 -124 0
-128 499 0
-127 499 0
-128 -127 0
-497 -106 0
-496 497 0
-112 497 0
-496 -112 0
-495 496 0
-117 496 0
-495 -117 0
-124 495 0
-121 495 0
-124 -121 0
-129 -107 0
-129 -113 0
-129 -118 0
-129 -122 0
-129 -125 0
-129 -127 0
-493 -107 0
-492 493 0
-113 493 0
-492 -113 0
-491 492 0
-118 492 0
-491 -118 0
-490 491 0
-122 491 0
-490 -122 0
-127 490 0
-125 490 0
-127 -125 0
-488 -108 0
-487 488 0
-114 488 0
-487 -114 0
-486 487 0
-119 487 0
-486 -119 0
-485 486 0
-123 486 0
-485 -123 0
-484 485 0
-126 485 0
-484 -126 0
-129 484 0
-128 484 0
-129 -128 0
28 -37 0
-28 37 672 671 670 669 668 667 666 0
-672 130 0
-672 -29 0
-672 28 0
-130 -28 29 672 0
-671 131 0
-671 -30 0
-671 28 0
-131 -28 30 671 0
-670 132 0
-670 -31 0
-670 28 0
-132 -28 31 670 0
-669 133 0
-669 -32 0
-669 28 0
-133 -28 32 669 0
-668 134 0
-668 -33 0
-668 28 0
-134 -28 33 668 0
-667 135 0
-667 -34 0
-667 28 0
-135 -28 34 667 0
-666 136 0
-666 -35 0
-666 28 0
-136 -28 35 666 0
29 -38 673 0
-29 38 679 678 677 676 675 674 0
-673 130 0
-673 -29 0
-673 28 0
-130 -28 29 673 0
-679 137 0
-679 -30 0
-679 29 0
-137 -29 30 679 0
-678 138 0
-678 -31 0
-678 29 0
-138 -29 31 678 0
-677 139 0
-677 -32 0
-677 29 0
-139 -29 32 677 0
-676 140 0
-676 -33 0
-676 29 0
-140 -29 33 676 0
-675 141 0
-675 -34 0
-675 29 0
-141 -29 34 675 0
-674 142 0
-674 -35 0
-674 29 0
-142 -29 35 674 0
30 -39 681 680 0
-30 39 686 685 684 683 682 0
-681 131 0
-681 -30 0
-681 28 0
-131 -28 30 681 0
-680 137 0
-680 -30 0
-680 29 0
-137 -29 30 680 0
-686 143 0
-686 -31 0
-686 30 0
-143 -30 31 686 0
-685 144 0
-685 -32 0
-685 30 0
-144 -30 32 685 0
-684 145 0
-684 -33 0
-684 30 0
-145 -30 33 684 0
-683 146 0
-683 -34 0
-683 30 0
-146 -30 34 683 0
-682 147 0
-682 -35 0
-682 30 0
-147 -30 35 682 0
31 -40 689 688 687 0
-31 40 693 692 691 690 0
-689 132 0
-689 -31 0
-689 28 0
-132 -28 31 689 0
-688 138 0
-688 -31 0
-688 29 0
-138 -29 31 688 0
-687 143 0
-687 -31 0
-687 30 0
-143 -30 31 687 0
-693 148 0
-693 -32 0
-693 31 0
-148 -31 32 693 0
-692 149 0
-692 -33 0
-692 31 0
-149 -31 33 692 0
-691 150 0
-691 -34 0
-691 31 0
-150 -31 34 691 0
-690 151 0
-690 -35 0
-690 31 0
-151 -31 35 690 0
32 -41 697 696 695 694 0
-32 41 700 699 698 0
-697 133 0
-697 -32 0
-697 28 0
-133 -28 32 697 0
-696 139 0
-696 -32 0
-696 29 0
-139 -29 32 696 0
-695 144 0
-695 -32 0
-695 30 0
-144 -30 32 695 0
-694 148 0
-694 -32 0
-694 31 0
-148 -31 32 694 0
-700 152 0
-700 -33 0
-700 32 0
-152 -32 33 700 0
-699 153 0
-699 -34 0
-699 32 0
-153 -32 34 699 0
-698 154 0
-698 -35 0
-698 32 0
-154 -32 35 698 0
33 -42 705 704 703 702 701 0
-33 42 707 706 0
-705 134 0
-705 -33 0
-705 28 0
-134 -28 33 705 0
-704 140 0
-704 -33 0
-704 29 0
-140 -29 33 704 0
-703 145 0
-703 -33 0
-703 30 0
-145 -30 33 703 0
-702 149 0
-702 -33 0
-702 31 0
-149 -31 33 702 0
-701 152 0
-701 -33 0
-701 32 0
-152 -32 33 701 0
-707 155 0
-707 -34 0
-707 33 0
-155 -33 34 707 0
-706 156 0
-706 -35 0
-706 33 0
-156 -33 35 706 0
34 -43 713 712 711 710 709 708 0
-34 43 714 0
-713 135 0
-713 -34 0
-713 28 0
-135 -28 34 713 0
-712 141 0
-712 -34 0
-712 29 0
-141 -29 34 712 0
-711 146 0
-711 -34 0
-711 30 0
-146 -30 34 711 0
-710 150 0
-710 -34 0
-710 31 0
-150 -31 34 710 0
-709 153 0
-709 -34 0
-709 32 0
-153 -32 34 709 0
-708 155 0
-708 -34 0
-708 33 0
-155 -33 34 708 0
-714 157 0
-714 -35 0
-714 34 0
-157 -34 35 714 0
35 -44 721 720 719 718 717 716 715 0
-35 44 0
-721 136 0
-721 -35 0
-721 28 0
-136 -28 35 721 0
-720 142 0
-720 -35 0
-720 29 0
-142 -29 35 720 0
-719 147 0
-719 -35 0
-719 30 0
-147 -30 35 719 0
-718 151 0
-718 -35 0
-718 31 0
-151 -31 35 718 0
-717 154 0
-717 -35 0
-717 32 0
-154 -32 35 717 0
-716 156 0
-716 -35 0
-716 33 0
-156 -33 35 716 0
-715 157 0
-715 -35 0
-715 34 0
-157 -34 35 715 0
-130 -28 29 -37 0
-130 -28 29 38 0
-131 -28 30 -37 0
-131 -28 30 39 0
-132 -28 31 -37 0
-132 -28 31 40 0
-133 -28 32 -37 0
-133 -28 32 41 0
-134 -28 33 -37 0
-134 -28 33 42 0
-135 -28 34 -37 0
-135 -28 34 43 0
-136 -28 35 -37 0
-136 -28 35 44 0
-137 -29 30 -38 0
-137 -29 30 39 0
-138 -29 31 -38 0
-138 -29 31 40 0
-139 -29 32 -38 0
-139 -29 32 41 0
-140 -29 33 -38 0
-140 -29 33 42 0
-141 -29 34 -38 0
-141 -29 34 43 0
-142 -29 35 -38 0
-142 -29 35 44 0
-143 -30 31 -39 0
-143 -30 31 40 0
-144 -30 32 -39 0
-144 -30 32 41 0
-145 -30 33 -39 0
-145 -30 33 42 0
-146 -30 34 -39 0
-146 -30 34 43 0
-147 -30 35 -39 0
-147 -30 35 44 0
-148 -31 32 -40 0
-148 -31 32 41 0
-149 -31 33 -40 0
-149 -31 33 42 0
-150 -31 34 -40 0
-150 -31 34 43 0
-151 -31 35 -40 0
-151 -31 35 44 0
-152 -32 33 -41 0
-152 -32 33 42 0
-153 -32 34 -41 0
-153 -32 34 43 0
-154 -32 35 -41 0
-154 -32 35 44 0
-155 -33 34 -42 0
-155 -33 34 43 0
-156 -33 35 -42 0
-156 -33 35 44 0
-157 -34 35 -43 0
-157 -34 35 44 0
-622 -136 0
-621 622 0
-135 622 0
-621 -135 0
-620 621 0
-134 621 0
-620 -134 0
-619 620 0
-133 620 0
-619 -133 0
-618 619 0
-132 619 0
-618 -132 0
-130 618 0
-131 618 0
-130 -131 0
-616 -142 0
-615 616 0
-141 616 0
-615 -141 0
-614 615 0
-140 615 0
-614 -140 0
-613 614 0
-139 614 0
-613 -139 0
-137 613 0
-138 613 0
-137 -138 0
-130 -142 0
-130 -141 0
-130 -140 0
-130 -139 0
-130 -138 0
-130 -137 0
-611 -147 0
-610 611 0
-146 611 0
-610 -146 0
-609 610 0
-145 610 0
-609 -145 0
-143 609 0
-144 609 0
-143 -144 0
-608 -147 0
-608 -146 0
-608 -145 0
-608 -144 0
-608 -143 0
-131 608 0
-137 608 0
-131 -137 0
-606 -151 0
-605 606 0
-150 606 0
-605 -150 0
-148 605 0
-149 605 0
-148 -149 0
-604 -151 0
-604 -150 0
-604 -149 0
-604 -148 0
-603 604 0
-143 604 0
-603 -143 0
-132 603 0
-138 603 0
-132 -138 0
-601 -154 0
-152 601 0
-153 601 0
-152 -153 0
-600 -154 0
-600 -153 0
-600 -152 0
-599 600 0
-148 600 0
-599 -148 0
-598 599 0
-144 599 0
-598 -144 0
-133 598 0
-139 598 0
-133 -139 0
-155 -156 0
-596 -156 0
-596 -155 0
-595 596 0
-152 596 0
-595 -152 0
-594 595 0
-149 595 0
-594 -149 0
-593 594 0
-145 594 0
-593 -145 0
-134 593 0
-140 593 0
-134 -140 0
-592 -157 0
-591 592 0
-155 592 0
-591 -155 0
-590 591 0
-153 591 0
-590 -153 0
-589 590 0
-150 590 0
-589 -150 0
-588 589 0
-146 589 0
-588 -146 0
-135 588 0
-141 588 0
-135 -141 0
-586 -157 0
-585 586 0
-156 586 0
-585 -156 0
-584 585 0
-154 585 0
-584 -154 0
-583 584 0
-151 584 0
-583 -151 0
-582 583 0
-147 583 0
-582 -147 0
-136 582 0
-142 582 0
-136 -142 0
-664 -130 0
-663 664 0
-131 664 0
-663 -131 0
-662 663 0
-132 663 0
-662 -132 0
-661 662 0
-133 662 0
-661 -133 0
-660 661 0
-134 661 0
-660 -134 0
-136 660 0
-135 660 0
-136 -135 0
-659 -130 0
-658 659 0
-137 659 0
-658 -137 0
-657 658 0
-138 658 0
-657 -138 0
-656 657 0
-139 657 0
-656 -139 0
-655 656 0
-140 656 0
-655 -140 0
-142 655 0
-141 655 0
-142 -141 0
-654 -131 0
-654 -137 0
-653 654 0
-143 654 0
-653 -143 0
-652 653 0
-144 653 0
-652 -144 0
-651 652 0
-145 652 0
-651 -145 0
-147 651 0
-146 651 0
-147 -146 0
-137 -131 0
-649 -132 0
-649 -138 0
-649 -143 0
-648 649 0
-148 649 0
-648 -148 0
-647 648 0
-149 648 0
-647 -149 0
-151 647 0
-150 647 0
-151 -150 0
-645 -132 0
-143 645 0
-138 645 0
-143 -138 0
-644 -133 0
-644 -139 0
-644 -144 0
-644 -148 0
-643 644 0
-152 644 0
-643 -152 0
-154 643 0
-153 643 0
-154 -153 0
-641 -133 0
-640 641 0
-139 641 0
-640 -139 0
-148 640 0
-144 640 0
-148 -144 0
-639 -134 0
-639 -140 0
-639 -145 0
-639 -149 0
-639 -152 0
-156 639 0
-155 639 0
-156 -155 0
-637 -134 0
-636 637 0
-140 637 0
-636 -140 0
-635 636 0
-145 636 0
-635 -145 0
-152 635 0
-149 635 0
-152 -149 0
-157 -135 0
-157 -141 0
-157 -146 0
-157 -150 0
-157 -153 0
-157 -155 0
-633 -135 0
-632 633 0
-141 633 0
-632 -141 0
-631 632 0
-146 632 0
-631 -146 0
-630 631 0
-150 631 0
-630 -150 0
-155 630 0
-153 630 0
-155 -153 0
-628 -136 0
-627 628 0
-142 628 0
-627 -142 0
-626 627 0
-147 627 0
-626 -147 0
-625 626 0
-151 626 0
-625 -151 0
-624 625 0
-154 625 0
-624 -154 0
-157 624 0
-156 624 0
-157 -156 0
